\ Generated by MPModelProtoExporter
\   Name             : 
\   Format           : Free
\   Constraints      : 10
\   Variables        : 9
\     Binary         : 0
\     Integer        : 9
\     Continuous     : 0
Minimize
 Obj: +2 x[0][0] +3 x[0][1] +5 x[0][2] +2.5 x[1][0] +4 x[1][1] +4.8 x[1][2] +3 x[2][0] +3.6 x[2][1] +3.2 x[2][2] 
Subject to
 가구_회사_수요: +1 x[0][0] +1 x[1][0] +1 x[2][0]  = 500
 가구_회사_수요_1: +1 x[0][1] +1 x[1][1] +1 x[2][1]  = 700
 가구_회사_수요_2: +1 x[0][2] +1 x[1][2] +1 x[2][2]  = 600
 목재3_공급_제한: +1 x[2][0] +1 x[2][1] +1 x[2][2]  <= 500
 가구_운송_제약: +1 x[1][0]  <= 200
 가구_운송_제약_3: +1 x[1][1]  <= 200
 가구_운송_제약_4: +1 x[1][2]  <= 200
 가구_운송_제약_5: +1 x[2][0]  <= 200
 가구_운송_제약_6: +1 x[2][1]  <= 200
 가구_운송_제약_7: +1 x[2][2]  <= 200
Bounds
 0 <= x[0][0] <= inf
 0 <= x[0][1] <= inf
 0 <= x[0][2] <= inf
 0 <= x[1][0] <= inf
 0 <= x[1][1] <= inf
 0 <= x[1][2] <= inf
 0 <= x[2][0] <= inf
 0 <= x[2][1] <= inf
 0 <= x[2][2] <= inf
Generals
 x[0][0]
 x[0][1]
 x[0][2]
 x[1][0]
 x[1][1]
 x[1][2]
 x[2][0]
 x[2][1]
 x[2][2]
End
